\ Model BinPackProb
\ LP format - for model browsing. Use MPS format to capture full model detail.
Minimize
  G[0] + G[1] + G[2] + G[3]
Subject To
 Assignment[4]: C[0,4] + C[1,4] + C[2,4] + C[3,4] = 1
 Assignment[10]: C[0,10] + C[1,10] + C[2,10] + C[3,10] = 1
 Assignment[15]: C[0,15] + C[1,15] + C[2,15] + C[3,15] = 1
 Assignment[21]: C[0,21] + C[1,21] + C[2,21] + C[3,21] = 1
 Assignment[22]: C[0,22] + C[1,22] + C[2,22] + C[3,22] = 1
 Assignment[30]: C[0,30] + C[1,30] + C[2,30] + C[3,30] = 1
 Assignment[31]: C[0,31] + C[1,31] + C[2,31] + C[3,31] = 1
 Assignment[41]: C[0,41] + C[1,41] + C[2,41] + C[3,41] = 1
 Assignment[48]: C[0,48] + C[1,48] + C[2,48] + C[3,48] = 1
 Capacity[0]: - 10 G[0] + 9.1 C[0,4] + 3.9 C[0,10] + 3.2 C[0,15]
   + 6.8 C[0,21] + 5.7 C[0,22] + 1.4 C[0,30] + 9.5 C[0,31] + 3.2 C[0,41]
   + 4.1 C[0,48] <= 0
 Capacity[1]: - 10 G[1] + 9.1 C[1,4] + 3.9 C[1,10] + 3.2 C[1,15]
   + 6.8 C[1,21] + 5.7 C[1,22] + 1.4 C[1,30] + 9.5 C[1,31] + 3.2 C[1,41]
   + 4.1 C[1,48] <= 0
 Capacity[2]: - 10 G[2] + 9.1 C[2,4] + 3.9 C[2,10] + 3.2 C[2,15]
   + 6.8 C[2,21] + 5.7 C[2,22] + 1.4 C[2,30] + 9.5 C[2,31] + 3.2 C[2,41]
   + 4.1 C[2,48] <= 0
 Capacity[3]: - 10 G[3] + 9.1 C[3,4] + 3.9 C[3,10] + 3.2 C[3,15]
   + 6.8 C[3,21] + 5.7 C[3,22] + 1.4 C[3,30] + 9.5 C[3,31] + 3.2 C[3,41]
   + 4.1 C[3,48] <= 0
 Sorting[1]: - G[0] + G[1] <= 0
 Sorting[2]: - G[1] + G[2] <= 0
 Sorting[3]: - G[2] + G[3] <= 0
Bounds
Binaries
 G[0] G[1] G[2] G[3] C[0,4] C[0,10] C[0,15] C[0,21] C[0,22] C[0,30] C[0,31]
 C[0,41] C[0,48] C[1,4] C[1,10] C[1,15] C[1,21] C[1,22] C[1,30] C[1,31]
 C[1,41] C[1,48] C[2,4] C[2,10] C[2,15] C[2,21] C[2,22] C[2,30] C[2,31]
 C[2,41] C[2,48] C[3,4] C[3,10] C[3,15] C[3,21] C[3,22] C[3,30] C[3,31]
 C[3,41] C[3,48]
End
